benchmarks_vrp/CMT4/no_cluster/CMT4_8.vrp
NAME: CMT4_8
TYPE: CVRP
COMMENT: 1028.42 - Cluster Nr.8
DIMENSION: 15
CAPACITY: 200
EDGE_WEIGHT_TYPE: EUC_2D
NODE_COORD_TYPE: TWOD_COORDS
NODE_COORD_SECTION: 
6 5 64
8 35 35
14 27 69
3 2 60
2 15 77
7 15 60
9 37 69
1 16 57
5 27 68
11 20 65
12 31 67
15 17 63
4 6 68
13 8 56
10 35 69
DEPOT_SECTION: 
8
-1
DEMAND_SECTION: 
13 27
11 12
9 11
4 30
5 7
14 10
1 16
6 11
10 23
12 3
2 9
15 19
3 5
8 0
7 17
EOF
