benchmarks_vrp/CMT4/no_cluster/CMT4_8.tour
NAME: CMT4_8 solution
TYPE: TOUR
TOUR_SECTION:
8 1 7 13 3 6 4 2 15 11 14 5 12 10 9 -1
-1
EOF